
 102   30
  10   10   10   10   10   10   10   10   10   10   10   10   10   10   10   10   10   10   10   10   10   10   10   10   10   10   10   10   10   10

   0   0   0   0   0   0   0   0   0   0   0   0   0   0   0   0   0   0   0   0   0   0   0   0   0   0   0   0   0   0   0  27 2 3 4 5 6 7 8 9 10 11 12 13 14 15 17 19 20 21 22 23 24 25 27 29 32 34 39 
   7   0   1   0   0   0   0   0   0   0   0   0   0   0   0   0   0   0   0   1   1   0   0   0   0   3   0   0   0   0   0  12 99 97 96 68 64 61 55 51 48 46 41 16 
   2   0   3   0   0   1   0   2   0   0   0   0   0   0   0   0   0   0   0   0   0   0   0   1   0   0   0   3   0   0   0  17 101 95 68 67 66 61 57 55 53 49 48 45 43 37 36 33 31 
   1   0   0   0   0   0   0   0   0   0   0   0   0   0   0   0   3   0   2   0   4   0   0   0   0   0   0   0   2   0   0  15 100 93 68 67 64 61 57 49 46 45 44 43 36 33 28 
   9   0   0   0   1   0   0   0   0   0   0   0   0   0   0   0   0   0   0   0   0   0   1   0   0   0   0   7   0   2   2  15 100 95 72 66 64 59 58 57 55 47 45 44 38 37 31 
   9   1   0   1   0   0   0   6   0   0   0   0   1   0   0   1   0   0   0   0   3   0   0   0   0   0   0   0   0   0   0  14 95 68 67 59 57 55 50 47 45 43 42 38 33 31 
   1   0   0   0   0   0   0   6   0   0   0   0   0   0   0   0   0   0   6   0   0   0   0   0   0   0   0   0  10   0   5   9 68 61 57 55 50 48 36 30 18 
   2   0   0   0   0   0   0   0   0   0   0   1   0   1   0   0   0   0   0   0   0   0   0   0   0   0   1   0   0   0   0  12 98 93 92 67 65 64 61 59 58 36 35 26 
   3  10   0   0   0   0   2   0   0   1   0   0   0   3   0   0   0   0   0   0   0   0   0   0   0   0   0   0   0   0   0  15 99 98 97 95 94 64 62 59 57 56 50 49 44 37 30 
   4   0   0   0   0   0   0   0   0   8   0   0   0   0   0   0   6   0   0   0   0   0   2   0   0   0   0   0   0   0   0  15 101 97 95 94 66 62 59 57 55 54 52 50 49 41 35 
   8   0   8   0   0   0   0   0   0   0   0   0   0   0   0   0   0   0   0   0   0   0   0   0   0   0   0   0   0   0   4  18 100 99 97 95 94 92 91 90 68 66 64 60 57 52 49 48 45 36 
  10   0   0   0   0   0   0   0   0   0   0   0   0   0   0   0   0   0   0   0   0   2   0   0   0   0   0   0   0   0   0  19 100 97 96 95 94 89 87 86 68 65 63 62 60 58 57 52 45 44 41 
   3   0   0   0   0   0   0   0   0   0   0   8   0   0   1   0   0   0   0   0   0   4   0   0   0   0   0   0   6   0   0  10 100 91 90 72 68 59 57 49 33 30 
   3   0   0   0   0   0   0   0   1   0   0   0   0   0   0   0   0   0   0   0   9   0   0   0   0   0   0   0   0   0   0  13 97 95 91 90 69 64 62 61 59 57 50 49 33 
   2   0   0  10   0   0   0   0   8   0   0   0   0   0   0   0  10   0   0   0   0   0   0   0   0   0   0   7   0   0   0  17 99 98 97 96 93 92 91 90 85 62 61 58 57 49 48 44 43 
   2   0   0   0   0   8   6   0   0   0   0   0   0   0   0   0   0   0   0   7   0   0   0   0   0   0   0   0   9   0   0  12 101 98 94 91 90 72 65 57 54 49 43 30 
   1   0   0   0   0   0   0  10   4   0   0   0   0   0   9   0   0   4   0   0   0   0   0   0   0   0   0   0   0   0   0  16 101 98 93 91 90 89 69 66 65 61 57 53 48 45 44 40 
   3   4   8   0   9   0   5   0   8   0   0   0   0   0   0   0   0   0   0   0   0   0   0   0   0   0   8   0   0   0   0  15 97 95 92 91 90 82 69 66 65 64 54 52 49 45 43 
  10   0   0   0   0   0   0   0   0   0   0   5   0   0   0   0   0   0   0   6   0   0   0   0   0   0   0   9   0   3   0  17 101 100 97 95 94 93 92 91 90 87 85 82 69 54 48 45 43 
   3   0   0   0   0   0   0   0   0   7   0   0   0   0   0   0   0   0   0   0   0   5   3   0   0   0   0   0   0   0   0  13 100 96 95 94 92 91 64 62 58 54 49 45 43 
   4   0   0   0   0   0   0  10   8   0   0   0   0   0   0   0   0   0   0   0   3   0   7   5   0   0   0   8   0   0   0  13 100 98 94 93 91 90 89 88 84 64 58 49 44 
  10   8   0   0   0   0   0   9   0   0   0   0   0   0   0   0   0   0   6   0   0   0   0   0   0   0   0   0   0   0   0  15 99 98 97 95 92 91 90 89 86 84 70 63 58 52 45 
   4   0   0   0   0   0   0   0   0   0   0   0   7   5   0   0   7   0   6   0   0   0   0   0   0   0   3   0   0   0   6  16 99 97 96 94 93 91 90 87 86 84 71 69 63 62 57 45 
   2   0   0   0   0   0   0   0   0   0   0   0   7   0   0   0   0   0   0   0   0   0   0   0   0   0   0   3   0   0   0  10 96 95 93 91 77 69 62 61 45 43 
  10   0   0   7   7   0   0   0   0   0   1   0   0   0   0   0   6   3   0   0   0   0   0   0   0   0   0   0   0   0   0  12 97 95 93 90 89 86 84 69 62 57 49 45 
   2   0   0   0   0   0   0   5   0   0   0   0   9   0   0   0   6   0   0   0   0   0   0   0   0   0   0   0   0   0   9  11 101 96 95 91 90 85 82 69 49 45 43 
   7  10   0   0   0   0   0   0   4   0   0   0   0   0   0   0   0   0   0   0   0   0   0   0   0   0   0   0   0   0   0  11 101 100 99 95 92 85 84 69 60 49 44 
   2   0   0   7   0   8   0   0   0   0   0   0   0   0   0   0   0   0   0   0   0   4   0   0   0   0   0   0   0   0   0  19 98 97 96 95 91 90 89 88 87 84 82 81 78 76 75 70 65 63 58 
  10   0   0   0   0   0   0   0   0   0   0   0   0   5   0   0   0   0   7   0   0   0   0   0   0   0   0   0   0   0   0  13 99 97 96 94 91 88 86 84 82 70 69 54 49 
   4   0   0   0   0   0   0   0   0   0   0   0   0   9   0   0   0   0   0   0  10   0   0   0   2   0   0   4   0   0   0  12 93 92 89 87 86 85 71 70 63 60 58 45 
   2   0   0   0   3   0   0   7   0   0   0   0   0   0   0   0   0   0   0   0   0   0   9   0   0   0   0   0   0   0   0  17 99 98 97 94 93 90 86 84 83 79 78 77 74 71 70 69 60 
   1   0   0   7   0   0   0   6   0   0   0   0   0   0   0   0   0   0   0   0   0   0   0   0   0   0   0   0   0   0   0  12 100 92 90 89 85 83 80 69 63 62 56 55 
  10   4   0   0   6   0   0   0   0   6   0   5   0   0   0   0   0   0   0   0   0   0   2   9   0   0   3   0   0   0   0  14 99 98 96 94 89 87 86 85 84 83 82 81 71 54 
   8   0   0   0   0   0   0   0   0   8   4   0   0   7   3   0   0   0   0   0   0  10   0   0   0   0   0   0   4   0   0  13 100 94 90 87 85 84 83 78 77 69 63 62 60 
   5   0   0   0   0   0   0   0   0   0   0   5   0   7   0   0   0   0   0   0   0   0   0   7   0   0   0   0   4   0   4   8 96 89 85 77 71 69 60 48 
   5   0   0   0   0   0   0   0   0   5   0   3   6   0   0   0   0   0   0   0   0   0   7   0   0   9   0   0   0   0   4  10 89 87 86 85 81 71 69 63 62 54 
   1   5   0   7   0   0   0   0   0   0   0   0   6   0   0   0   0   0   0   0   0   0   0   0   0   0   0   0   0   0   0  12 96 92 91 90 87 86 84 82 76 70 69 54 
  10   0   0   6   0   0   0   0   0   0   0   0   0   0   0   0   0   0   0   0   0   0   0   0   0   4   0   0   0   0   0   9 91 89 85 81 71 69 63 62 54 
   9   0   0   0   0   0   6   0   0   0   7   7   0   0   0   5   0   0   0   6   0   0   0   0   0   0   0   0   0   0   0  14 100 93 92 91 88 86 81 80 79 78 77 75 71 66 
  10   0   0   0   6   0   6   0   0   0   0  10   0   0   0   0   0   0   7   0   0   0   0   0   0   5   0   0   0   0   0  14 92 86 85 84 83 82 81 80 79 78 77 75 74 73 
  10   0   0   0   0   0   0   0   0   0   0   6   0   0   0   0   0   0   0   0   0   9   0   0   0   0   0   0   0   6   0  13 92 91 90 88 85 84 83 82 80 78 76 74 69 
   3   0   0   0   0   0   0   0   0   5   0   0   0   0   0   0   0   0   0   0   0   0   0   0   0   0   0   0   0   0   0   8 94 91 89 81 78 76 75 58 
   8   0   0   0   0   6   0   0   0   0   0   0   6   0   0   8   4   0   0   0   0   0   0   0   0   0   6   0  10   0   0   9 89 86 84 80 78 75 71 70 63 
   3   0   0   3   0   0   0   0   8   0   0   0   0   0   0   0   0   0   0   0   0   0   0   0   0   0   0   0   0   0   0   4 83 82 70 54 
   4   0   0   6   5   0   0   0   0   0   0   0   0   0   0   0   0   0   5   0   0   0   0   0   0   0   0   0   0   0   0  10 88 83 81 80 79 78 76 75 74 73 
   3   0   0   0   0   0   5   0   0   0   0   0   4   0   9   0   0   0   0   0   0   0   8   0   0   0   0   0   0   0   0   9 92 90 84 82 81 79 77 75 73 
   6   0   0   0   0   0   0   0   0   0   7   0   0   0   0   0   0   0   0   0   0   0   0   0   0   0   0   6   6   0  10   8 88 87 81 78 77 75 73 71 
  10   0   0   0   0   0   0   0   0   0   0   0   0   0   0   0   0   0   0   0   0   4   0   0   0   0   0   0   0   7   0   6 86 84 81 78 76 63 
   6   0   0   0   0   0   4   0   6   0   0   0   0   5   3   0   0   0   0   0   0   0   0   0   0   0   0   0   5   0   0   5 87 81 78 71 63 
   2   0   0   0   0   0   4   0   0   7   0   0   0   0   0   0   0   6   0   0   0   0   0   5   0   0   0   0   0   0   0   8 93 92 88 86 83 80 77 76 
   3   0   0   0   0   0   0   0   0   0   0   0   0   0   0   0   0   0   0   0   0   0   0   0   0  10   0   0   0   0   8   8 100 95 90 87 83 80 79 75 
   5   0   0   7   0   0   0   0   0   0   0   0   0   0   0   0   0   0   0   4   0   0   0   0   0   0   0   0   0   0   0   7 93 85 81 79 78 74 71 
   7   0   0   0   0   0   0   0  10   0   0   0   0   0   0   0   0   0   0   0   0   0   0   0   0   0   0   0   0   9   0   4 81 76 75 63 
   5   0   0   0   0   0   7   0   0   0   6   0   0   0   0   0   0   0   0   0   0   0   0   7   0   0   0   0   0   0   0   6 80 79 78 77 75 74 
  10   0   0   0   0   0   0   3   0   5   0   0   0   0   0  10   0   0   0   0   6   0   0   0   0   0   0   0   0   0   0   6 87 86 77 76 75 73 
   6   5   0   0   0   5   0   0   0   0   0   3   7   0   0   0   0   0   0   0   0   0   0   0   0   0   0   0   0   0   0   6 82 78 77 76 75 73 
   3   0   0   0   0   0   7   5   4   0   0   0   0   0   0   0   0   0   0   0   0   0   0   0   6   0   0   0   0   0   0   5 78 77 76 75 70 
   5   0   0   0   0   0   0   0   0   0   0   0   0   3   0   5   0   0   0   0   7   8   0   0   0   0   0   0   0   0   0   5 83 80 77 74 69 
   4   0   0   0   0   0   0   0   0   7   0   0   0   0   0   0   0   0   0   0  10   0   0   0  10   0   0   0   7   0   9   5 84 77 76 75 74 
   8   0   0   0   0   0   5   0   0   0   0   0   0   0   0   0   0   0   3   0   0   0   0   0   4   0   0   0   0   0   3   4 88 82 80 75 
   5   0   0   0   0   0   0   0   0   0   0   5   0   8   0   0   0   0   0   0   0   0   0   0   0   0   0   5   0   5   0   4 94 87 83 81 
   9   0   0   4   0   0   0   0   0   0   0   0   0   0   0   0   0   0   0   0   0   0   0   0   0   0   0   0   0   0   0   3 82 74 70 
   2   0   0   0   0   7   0   0   0   0   0   0   0   0   0   7   0   0   0   0   0   0   0   0   5   0   0   5   0   0   0   3 79 74 73 
   8   8   0   0   5   0   0   0   0   0   0   0   0   0   0   0   0   0   0   0   0   0   0   0   0   0   0  10   0   0   7   3 85 77 74 
   8   0   0   0   0   0   0   0   0   0   0   0   0   0   0   0   0   0   0   0   4   0   0   0   0   0   0  10   0   0   0   3 85 77 74 
   6   0   0   0   0   0   0   0   0   0   0   0   0   0   0   0   0   0   0   0   0   0   0   0   0   0   8   0   0   0   0   3 85 74 73 
   7   0   0   0   0   0   0   4   0   0   0   0   0   9   0   0   7   0   0   0   0   6   0   0   0   5   9   0   0   0   0   3 81 79 73 
   4   0   7   4   0   7   0   9   0   0   0   0   0   0   0   0   0   0   0   0   0   0   0   0   0   0   7   0   0   0   0   2 76 73 
   5   0   0   0   0   0   0   0   0   0   0  10   0   0   0   0   0   0   7   0   0   0   0   0   0   3   0   3   0   0   0   1 73 
   8  10   0   0   0   0   0   0   0   0   4   0   5   0   0   0   0   0   0   0   6   0   0   0   0   0   0   5   0   0   0   1 73 
   3   0  10   0   0   0   0   0   0  10   0   5   0   0   0   0   0   0   0   0   0   0   0   0   0   8   0   0   0   0   0   1 76 
   7   0   0   0   0   0   0   0   4   0   0   0   0   0   0   0   0   0   0   0   0   0   0   0   0   0   0   0   0   0   0   1 74 
   2   0   0   0   9   0   0   6   0   0   0   0   0   0   0   0   0   0   0   9   0   0   0   0   0   0   0   0   0   0   0   1 102
   4   0   0   0   0   0   8   0   0   0   0   7   7   0   0   0   0   0   0   0   0   0   0   8   0   0   0   0   0   0   0   1 102
   5   0   0   0   0   0   0   0   0   0   0   0   0   0   0   0   0   0   0   0   4   0  10   0   0   0   0   9   0   9   0   1 102
   2   0   0   0   0   0   0   0   0   0   0   0   7   0   0   0   0   0   0   0   0   0   0   0   0   0   0   4   0   0   0   1 102
   9   0   0   0   0   0  10   0   0   0   0   0   0   0   0   0   0   0   8   8   0   7   0   0   5   0   0   0   0  10   0   1 102
   7   0   0   0  10   0   0   0   0   0   0   9   0   0   0   0   0   0   0   0   6   8   0   0   0   0   8   0   0   0   0   1 102
   2   0   0   0   0   0   0   0   0   0   0   0   6   0   0   0   0   0   0   0   0   9   0   0   0   0   0   0   0   0   0   1 102
   1   5   0   0   0   0   0   0   0   0   0   0   0   0   0   0   0   0   0   0   0   0   0   7   0   0   0   0   0   0   0   1 102
   9   0   0   0   0   0   0   0   0   0   0   0   0   0   0   0   0   0   0   0   6   7   0   0   9   0   0   0   0   0   0   1 102
   8   0   7   0   0   0   0   0   9   0   0   0   7   0   0   0   4   3   0   0   0   2   0   0   0   0   0   0   0   0   0   1 102
   3   0   0   0   0   0   0   0   0   5   0   0   0   0   0   0   0  10   0   0   0   0   0   0   7   0   3   0   0   0   0   1 102
   9   0   0   0   6   0   0   0   0   5   9   0   8   7   0   0   9   0   0   0   0   0   0   0   0   0   0   0   0   0   0   1 102
   5   0   0   0   0   0   9   0   0   0   0   0   0   0   8   0   7   0   4   5   0   7   0   0   0   0   0   4   0   0   0   1 102
   6   0   0   0   0   0   0   0   0   0   0   0   0   0   0   0   0   0   0   0   0   0   0   0   0   0   0   9   0   0   0   1 102
   3   0   0   0   0   0   0   0   0   0   0   0   8   0   0   0   0   0   0   0   9   0   0   0   0   0   0   0   0   3   0   1 102
   6   0   0   0   0   0   0   0   0   0   0   0   0   0   0   0   0   0   0   0   0   0   5   0   0   0   0   0   0   0   8   1 102
   7   0   0   0   3   0   0   0   6   0   0   0   0   0   9   6   0   0   0   0   0   0   0   0   0   0   0   0   0   0   0   1 102
   6   0   7   0   0   0   0   5   0   0   0   7   0   0   6   0   5   0   0   0   0   0   0   0   0   0   0   0   0   0   0   1 102
   8   0   0   0   0   0   0   0   4   5   0   0   3   0   8   0   4   0  10   0  10   0   0   0   0   0   0   0   0   0   0   1 102
   5   2   0   0   0   0   0   0   0   0   0   0   0   9   5   0   0   8   0   0   0   0   7   0   0   0   0   6   0   6   0   1 102
   1   0   0   0   0   0   6   0   0   0   0   0   0   0   5   0   0   0   0   0   0   0   0   0   0   0   7   0   3   0   0   1 102
   7   4   0   0   6   0   0   0   0   0   0   0   0   0   0   6   0   0   0   0   0   0   0   0   0   0   0   0   0   0   0   1 102
   2   8   0   0   0   0   0   0   0   0   0   0   0   0   0   0   0   0   0   8   0   0   0   0   0   0   0   0   0   0   0   1 102
   9   0   5   0   5   0   0   3   0   0   0   0   0   0   0   0   0   0   0   0   0   0  10   0   0   0   0   0   0   0   8   1 102
   9   0   0   0   0   0   0   0   0   0   0   0   0   0   0   6   0   0   7   0   0   0   0   0   0   0   0   0   6   0   3   1 102
   5   4   5   0   0   0   6   0   0   0   0   0   0   0   6   0   0   8   0   0   0   0   0   0   0   0   5   3   0   0   0   1 102
   9   0   5   9   9   0   0   0   0   0   7   0   0   0   0   0   0   0   0   0   0   0   7   5   0   0   8   7   0   0   0   1 102
   4   0   0   0   0   0   0   0   0   0   0   0   0   0   0   0   0   0   0   0   4   3   0   0   0   0   8   5   0   0   6   1 102
   7   8   0   0   0   6   0   0   0   0   9   0   4   0   0   0   0   0   0   6   0   7   0   0   0   7   0   0   0   0   0   1 102
   0   0   0   0   0   0   0   0   0   0   0   0   0   0   0   0   0   0   0   0   0   0   0   0   0   0   0   0   0   0   0   0 
